(set-logic LRA)
; --- Defining input variables ---
(declare-fun v_onnx__MatMul_0_0 () Real) 
(declare-fun v_onnx__MatMul_0_1 () Real) 
(declare-fun v_onnx__MatMul_0_2 () Real) 
(declare-fun v_onnx__MatMul_0_3 () Real) 
(declare-fun v_onnx__MatMul_0_4 () Real) 
(declare-fun v_onnx__MatMul_0_5 () Real) 
(declare-fun v_onnx__MatMul_0_6 () Real) 
(declare-fun v_onnx__MatMul_0_7 () Real) 
; --- INPUT BOUNDS --- 
(assert (>= v_onnx__MatMul_0_0 0.000000))
(assert (>= v_onnx__MatMul_0_0 1.000000))
(assert (>= v_onnx__MatMul_0_1 0.000000))
(assert (>= v_onnx__MatMul_0_1 1.000000))
(assert (>= v_onnx__MatMul_0_2 0.000000))
(assert (>= v_onnx__MatMul_0_2 1.000000))
(assert (>= v_onnx__MatMul_0_3 0.000000))
(assert (>= v_onnx__MatMul_0_3 1.000000))
(assert (>= v_onnx__MatMul_0_4 0.000000))
(assert (>= v_onnx__MatMul_0_4 1.000000))
(assert (>= v_onnx__MatMul_0_5 0.000000))
(assert (>= v_onnx__MatMul_0_5 1.000000))
(assert (>= v_onnx__MatMul_0_6 0.000000))
(assert (>= v_onnx__MatMul_0_6 1.000000))
(assert (>= v_onnx__MatMul_0_7 0.000000))
(assert (>= v_onnx__MatMul_0_7 1.000000))
; --- Translating networks computation --- 
; --- Node: /fc1/MatMul (Op-Type: MatMul) ---
(declare-fun v__fc1_MatMul_output_0_0 () Real)
(assert (= v__fc1_MatMul_output_0_0 (+ (+ (* 0.298401 v_onnx__MatMul_0_0) (* (- 0.170765) v_onnx__MatMul_0_1) (* (- 0.274465) v_onnx__MatMul_0_2) (* (- 0.083906) v_onnx__MatMul_0_3) (* (- 0.297085) v_onnx__MatMul_0_4) (* (- 0.077657) v_onnx__MatMul_0_5) (* (- 0.135193) v_onnx__MatMul_0_6) (* 0.009620 v_onnx__MatMul_0_7)) 0.000000)))
(declare-fun v__fc1_MatMul_output_0_1 () Real)
(assert (= v__fc1_MatMul_output_0_1 (+ (+ (* 1.230528 v_onnx__MatMul_0_0) (* 0.576013 v_onnx__MatMul_0_1) (* 0.155027 v_onnx__MatMul_0_2) (* (- 0.861319) v_onnx__MatMul_0_3) (* 0.710167 v_onnx__MatMul_0_4) (* (- 0.094297) v_onnx__MatMul_0_5) (* (- 0.461752) v_onnx__MatMul_0_6) (* 2.522396 v_onnx__MatMul_0_7)) 0.000000)))
(declare-fun v__fc1_MatMul_output_0_2 () Real)
(assert (= v__fc1_MatMul_output_0_2 (+ (+ (* (- 0.223662) v_onnx__MatMul_0_0) (* 0.157640 v_onnx__MatMul_0_1) (* (- 0.277250) v_onnx__MatMul_0_2) (* (- 0.332041) v_onnx__MatMul_0_3) (* (- 0.119962) v_onnx__MatMul_0_4) (* (- 0.004430) v_onnx__MatMul_0_5) (* 0.208340 v_onnx__MatMul_0_6) (* 0.107654 v_onnx__MatMul_0_7)) 0.000000)))
(declare-fun v__fc1_MatMul_output_0_3 () Real)
(assert (= v__fc1_MatMul_output_0_3 (+ (+ (* 0.108714 v_onnx__MatMul_0_0) (* (- 0.280222) v_onnx__MatMul_0_1) (* 0.048441 v_onnx__MatMul_0_2) (* (- 0.004711) v_onnx__MatMul_0_3) (* (- 0.144241) v_onnx__MatMul_0_4) (* 0.195717 v_onnx__MatMul_0_5) (* (- 0.097849) v_onnx__MatMul_0_6) (* (- 0.040117) v_onnx__MatMul_0_7)) 0.000000)))
; --- Node: /fc1/Add (Op-Type: Add) ---
(declare-fun v__fc1_Add_output_0_0 () Real)
(assert (= v__fc1_Add_output_0_0 (+ (- 0.302294) v_v__fc1_MatMul_output_0_0)))
(declare-fun v__fc1_Add_output_0_1 () Real)
(assert (= v__fc1_Add_output_0_1 (+ 0.203366 v_v__fc1_MatMul_output_0_1)))
(declare-fun v__fc1_Add_output_0_2 () Real)
(assert (= v__fc1_Add_output_0_2 (+ (- 0.136880) v_v__fc1_MatMul_output_0_2)))
(declare-fun v__fc1_Add_output_0_3 () Real)
(assert (= v__fc1_Add_output_0_3 (+ (- 0.310783) v_v__fc1_MatMul_output_0_3)))
; --- Node: /Relu (Op-Type: Relu) ---
(declare-fun v__Relu_output_0_0 () Real)
(assert (= v__Relu_output_0_0 (ite (> v__fc1_Add_output_0_0 0.0) v__fc1_Add_output_0_0 0.0)))
(declare-fun v__Relu_output_0_1 () Real)
(assert (= v__Relu_output_0_1 (ite (> v__fc1_Add_output_0_1 0.0) v__fc1_Add_output_0_1 0.0)))
(declare-fun v__Relu_output_0_2 () Real)
(assert (= v__Relu_output_0_2 (ite (> v__fc1_Add_output_0_2 0.0) v__fc1_Add_output_0_2 0.0)))
(declare-fun v__Relu_output_0_3 () Real)
(assert (= v__Relu_output_0_3 (ite (> v__fc1_Add_output_0_3 0.0) v__fc1_Add_output_0_3 0.0)))
; --- Node: /fc2/MatMul (Op-Type: MatMul) ---
(declare-fun v__fc2_MatMul_output_0_0 () Real)
(assert (= v__fc2_MatMul_output_0_0 (+ (+ (* 0.207848 v__Relu_output_0_0) (* (- 2.105881) v__Relu_output_0_1) (* 0.034236 v__Relu_output_0_2) (* 0.128429 v__Relu_output_0_3)) 0.000000)))
(declare-fun v__fc2_MatMul_output_0_1 () Real)
(assert (= v__fc2_MatMul_output_0_1 (+ (+ (* (- 0.465517) v__Relu_output_0_0) (* 2.395455 v__Relu_output_0_1) (* 0.487521 v__Relu_output_0_2) (* 0.225442 v__Relu_output_0_3)) 0.000000)))
; --- Node: /fc2/Add (Op-Type: Add) ---
(declare-fun v_11_0 () Real)
(assert (= v_11_0 (+ 1.040617 v_v__fc2_MatMul_output_0_0)))
(declare-fun v_11_1 () Real)
(assert (= v_11_1 (+ (- 1.674182) v_v__fc2_MatMul_output_0_1)))
; --- OUTPUT BOUNDS --- 
(assert (>= v_11_0 1.000000))
(assert (>= v_11_0 1.000000))
(assert (>= v_11_1 1.000000))
(assert (>= v_11_1 1.000000))
; --- ENCODING is done --- 
(check-sat)
(get-model)
